x low 3.00
p edge 151 1130
n 0 1.00
n 3 1.00
n 6 1.00
n 7 1.00
n 8 1.00
n 9 1.00
n 10 1.00
n 11 1.00
n 12 1.00
n 15 1.00
n 16 1.00
n 17 1.00
n 18 1.00
n 19 1.00
n 20 1.00
n 1 1.00
n 2 1.00
n 5 1.00
n 24 1.00
n 25 1.00
n 22 1.00
n 31 1.00
n 32 1.00
n 14 1.00
n 21 1.00
n 28 1.00
n 29 1.00
n 30 1.00
n 26 1.00
n 27 1.00
n 23 1.00
n 33 1.00
n 34 1.00
n 35 1.00
n 39 1.00
n 40 1.00
n 37 1.00
n 49 1.00
n 50 1.00
n 36 1.00
n 42 1.00
n 43 1.00
n 44 1.00
n 46 1.00
n 47 1.00
n 48 1.00
n 41 1.00
n 45 1.00
n 38 1.00
n 54 1.00
n 55 1.00
n 52 1.00
n 61 1.00
n 62 1.00
n 51 1.00
n 58 1.00
n 59 1.00
n 60 1.00
n 56 1.00
n 57 1.00
n 53 1.00
n 63 1.00
n 64 1.00
n 65 1.00
n 69 1.00
n 70 1.00
n 67 1.00
n 79 1.00
n 80 1.00
n 66 1.00
n 72 1.00
n 73 1.00
n 74 1.00
n 76 1.00
n 77 1.00
n 78 1.00
n 71 1.00
n 75 1.00
n 68 1.00
n 81 1.00
n 82 1.00
n 83 1.00
n 84 1.00
n 85 1.00
n 86 1.00
n 90 1.00
n 91 1.00
n 92 1.00
n 87 1.00
n 88 1.00
n 89 1.00
n 93 1.00
n 94 1.00
n 95 1.00
n 96 1.00
n 97 1.00
n 98 1.00
n 102 1.00
n 103 1.00
n 104 1.00
n 99 1.00
n 100 1.00
n 101 1.00
n 105 1.00
n 106 1.00
n 107 1.00
n 108 1.00
n 109 1.00
n 110 1.00
n 114 1.00
n 115 1.00
n 116 1.00
n 111 1.00
n 112 1.00
n 113 1.00
n 117 1.00
n 118 1.00
n 119 1.00
n 120 1.00
n 121 1.00
n 122 1.00
n 126 1.00
n 127 1.00
n 128 1.00
n 123 1.00
n 124 1.00
n 125 1.00
n 129 1.00
n 130 1.00
n 131 1.00
n 132 1.00
n 133 1.00
n 134 1.00
n 138 1.00
n 139 1.00
n 140 1.00
n 135 1.00
n 136 1.00
n 137 1.00
n 141 1.00
n 142 1.00
n 143 1.00
n 144 1.00
n 145 1.00
n 146 1.00
n 150 1.00
n 151 1.00
n 152 1.00
n 147 1.00
n 148 1.00
n 149 1.00
e 0 3
e 0 6
e 0 7
e 0 8
e 0 9
e 0 10
e 0 11
e 0 12
e 0 15
e 0 16
e 0 17
e 0 18
e 0 19
e 0 20
e 1 2
e 1 3
e 1 6
e 1 7
e 1 8
e 1 9
e 1 10
e 1 11
e 1 12
e 1 15
e 1 16
e 1 17
e 1 18
e 1 19
e 1 20
e 2 6
e 2 7
e 2 8
e 2 9
e 2 10
e 2 11
e 2 15
e 2 16
e 2 17
e 2 18
e 2 19
e 2 20
e 3 6
e 3 8
e 3 18
e 3 20
e 5 6
e 5 8
e 5 18
e 5 20
e 6 7
e 6 8
e 6 9
e 6 24
e 6 25
e 7 8
e 7 22
e 7 24
e 7 25
e 7 31
e 7 32
e 8 20
e 8 31
e 8 32
e 9 10
e 9 11
e 9 12
e 9 14
e 9 18
e 9 20
e 9 21
e 9 22
e 10 11
e 10 21
e 10 22
e 10 25
e 10 28
e 10 29
e 11 12
e 11 14
e 11 17
e 11 18
e 11 20
e 11 28
e 11 29
e 12 15
e 12 17
e 14 15
e 14 17
e 15 16
e 15 17
e 15 18
e 15 30
e 15 31
e 16 17
e 16 25
e 16 26
e 16 28
e 16 30
e 16 31
e 17 25
e 17 26
e 18 19
e 18 20
e 18 27
e 18 28
e 19 20
e 19 22
e 19 23
e 19 27
e 19 28
e 19 31
e 20 22
e 20 23
e 21 22
e 21 23
e 21 33
e 21 34
e 21 35
e 21 39
e 21 40
e 22 23
e 22 33
e 22 34
e 22 35
e 22 37
e 22 39
e 22 40
e 22 49
e 22 50
e 23 33
e 23 34
e 23 35
e 23 49
e 23 50
e 24 25
e 24 26
e 24 36
e 24 37
e 24 42
e 24 43
e 24 44
e 25 26
e 25 36
e 25 37
e 25 40
e 25 42
e 25 43
e 25 44
e 25 46
e 25 47
e 26 42
e 26 43
e 26 44
e 26 46
e 26 47
e 27 28
e 27 29
e 27 42
e 27 43
e 27 44
e 27 48
e 27 49
e 28 29
e 28 40
e 28 41
e 28 42
e 28 43
e 28 44
e 28 46
e 28 48
e 28 49
e 29 40
e 29 41
e 29 42
e 29 43
e 29 44
e 30 31
e 30 32
e 30 33
e 30 34
e 30 35
e 30 45
e 30 46
e 31 32
e 31 33
e 31 34
e 31 35
e 31 37
e 31 38
e 31 45
e 31 46
e 31 49
e 32 33
e 32 34
e 32 35
e 32 37
e 32 38
e 33 34
e 33 36
e 33 38
e 33 48
e 33 50
e 35 36
e 35 38
e 35 48
e 35 50
e 36 37
e 36 38
e 36 39
e 36 54
e 36 55
e 37 38
e 37 52
e 37 54
e 37 55
e 37 61
e 37 62
e 38 50
e 38 61
e 38 62
e 39 40
e 39 41
e 39 42
e 39 44
e 39 48
e 39 50
e 39 51
e 39 52
e 40 41
e 40 51
e 40 52
e 40 55
e 40 58
e 40 59
e 41 42
e 41 44
e 41 47
e 41 48
e 41 50
e 41 58
e 41 59
e 42 43
e 42 45
e 42 47
e 44 45
e 44 47
e 45 46
e 45 47
e 45 48
e 45 60
e 45 61
e 46 47
e 46 55
e 46 56
e 46 58
e 46 60
e 46 61
e 47 55
e 47 56
e 48 49
e 48 50
e 48 57
e 48 58
e 49 50
e 49 52
e 49 53
e 49 57
e 49 58
e 49 61
e 50 52
e 50 53
e 51 52
e 51 53
e 51 63
e 51 64
e 51 65
e 51 69
e 51 70
e 52 53
e 52 63
e 52 64
e 52 65
e 52 67
e 52 69
e 52 70
e 52 79
e 52 80
e 53 63
e 53 64
e 53 65
e 53 79
e 53 80
e 54 55
e 54 56
e 54 66
e 54 67
e 54 72
e 54 73
e 54 74
e 55 56
e 55 66
e 55 67
e 55 70
e 55 72
e 55 73
e 55 74
e 55 76
e 55 77
e 56 72
e 56 73
e 56 74
e 56 76
e 56 77
e 57 58
e 57 59
e 57 72
e 57 73
e 57 74
e 57 78
e 57 79
e 58 59
e 58 70
e 58 71
e 58 72
e 58 73
e 58 74
e 58 76
e 58 78
e 58 79
e 59 70
e 59 71
e 59 72
e 59 73
e 59 74
e 60 61
e 60 62
e 60 63
e 60 64
e 60 65
e 60 75
e 60 76
e 61 62
e 61 63
e 61 64
e 61 65
e 61 67
e 61 68
e 61 75
e 61 76
e 61 79
e 62 63
e 62 64
e 62 65
e 62 67
e 62 68
e 63 64
e 63 66
e 63 68
e 63 78
e 63 80
e 65 66
e 65 68
e 65 78
e 65 80
e 66 67
e 66 68
e 66 69
e 66 81
e 66 82
e 66 83
e 66 84
e 66 85
e 66 86
e 66 90
e 66 91
e 66 92
e 67 68
e 67 81
e 67 82
e 67 83
e 67 84
e 67 85
e 67 86
e 67 90
e 67 91
e 67 92
e 68 80
e 68 81
e 68 82
e 68 83
e 68 84
e 68 85
e 68 86
e 68 90
e 68 91
e 68 92
e 69 70
e 69 71
e 69 72
e 69 74
e 69 78
e 69 80
e 69 81
e 69 82
e 69 83
e 69 84
e 69 85
e 69 86
e 69 87
e 69 88
e 69 89
e 70 71
e 70 81
e 70 82
e 70 83
e 70 84
e 70 85
e 70 86
e 70 87
e 70 88
e 70 89
e 71 72
e 71 74
e 71 77
e 71 78
e 71 80
e 71 81
e 71 82
e 71 83
e 71 84
e 71 85
e 71 86
e 71 87
e 71 88
e 71 89
e 72 73
e 72 75
e 72 77
e 74 75
e 74 77
e 75 76
e 75 77
e 75 78
e 75 84
e 75 85
e 75 86
e 75 87
e 75 88
e 75 89
e 75 90
e 75 91
e 75 92
e 76 77
e 76 84
e 76 85
e 76 86
e 76 87
e 76 88
e 76 89
e 76 90
e 76 91
e 76 92
e 77 84
e 77 85
e 77 86
e 77 87
e 77 88
e 77 89
e 77 90
e 77 91
e 77 92
e 78 79
e 78 80
e 78 81
e 78 82
e 78 83
e 78 87
e 78 88
e 78 89
e 78 90
e 78 91
e 78 92
e 79 80
e 79 81
e 79 82
e 79 83
e 79 87
e 79 88
e 79 89
e 79 90
e 79 91
e 79 92
e 80 81
e 80 82
e 80 83
e 80 87
e 80 88
e 80 89
e 80 90
e 80 91
e 80 92
e 81 82
e 81 83
e 81 93
e 81 94
e 81 95
e 81 96
e 81 97
e 81 98
e 81 102
e 81 103
e 81 104
e 82 83
e 82 93
e 82 94
e 82 95
e 82 96
e 82 97
e 82 98
e 82 102
e 82 103
e 82 104
e 83 93
e 83 94
e 83 95
e 83 96
e 83 97
e 83 98
e 83 102
e 83 103
e 83 104
e 84 85
e 84 86
e 84 93
e 84 94
e 84 95
e 84 96
e 84 97
e 84 98
e 84 99
e 84 100
e 84 101
e 85 86
e 85 93
e 85 94
e 85 95
e 85 96
e 85 97
e 85 98
e 85 99
e 85 100
e 85 101
e 86 93
e 86 94
e 86 95
e 86 96
e 86 97
e 86 98
e 86 99
e 86 100
e 86 101
e 87 88
e 87 89
e 87 96
e 87 97
e 87 98
e 87 99
e 87 100
e 87 101
e 87 102
e 87 103
e 87 104
e 88 89
e 88 96
e 88 97
e 88 98
e 88 99
e 88 100
e 88 101
e 88 102
e 88 103
e 88 104
e 89 96
e 89 97
e 89 98
e 89 99
e 89 100
e 89 101
e 89 102
e 89 103
e 89 104
e 90 91
e 90 92
e 90 93
e 90 94
e 90 95
e 90 99
e 90 100
e 90 101
e 90 102
e 90 103
e 90 104
e 91 92
e 91 93
e 91 94
e 91 95
e 91 99
e 91 100
e 91 101
e 91 102
e 91 103
e 91 104
e 92 93
e 92 94
e 92 95
e 92 99
e 92 100
e 92 101
e 92 102
e 92 103
e 92 104
e 93 94
e 93 95
e 93 105
e 93 106
e 93 107
e 93 108
e 93 109
e 93 110
e 93 114
e 93 115
e 93 116
e 94 95
e 94 105
e 94 106
e 94 107
e 94 108
e 94 109
e 94 110
e 94 114
e 94 115
e 94 116
e 95 105
e 95 106
e 95 107
e 95 108
e 95 109
e 95 110
e 95 114
e 95 115
e 95 116
e 96 97
e 96 98
e 96 105
e 96 106
e 96 107
e 96 108
e 96 109
e 96 110
e 96 111
e 96 112
e 96 113
e 97 98
e 97 105
e 97 106
e 97 107
e 97 108
e 97 109
e 97 110
e 97 111
e 97 112
e 97 113
e 98 105
e 98 106
e 98 107
e 98 108
e 98 109
e 98 110
e 98 111
e 98 112
e 98 113
e 99 100
e 99 101
e 99 108
e 99 109
e 99 110
e 99 111
e 99 112
e 99 113
e 99 114
e 99 115
e 99 116
e 100 101
e 100 108
e 100 109
e 100 110
e 100 111
e 100 112
e 100 113
e 100 114
e 100 115
e 100 116
e 101 108
e 101 109
e 101 110
e 101 111
e 101 112
e 101 113
e 101 114
e 101 115
e 101 116
e 102 103
e 102 104
e 102 105
e 102 106
e 102 107
e 102 111
e 102 112
e 102 113
e 102 114
e 102 115
e 102 116
e 103 104
e 103 105
e 103 106
e 103 107
e 103 111
e 103 112
e 103 113
e 103 114
e 103 115
e 103 116
e 104 105
e 104 106
e 104 107
e 104 111
e 104 112
e 104 113
e 104 114
e 104 115
e 104 116
e 105 106
e 105 107
e 105 117
e 105 118
e 105 119
e 105 120
e 105 121
e 105 122
e 105 126
e 105 127
e 105 128
e 106 107
e 106 117
e 106 118
e 106 119
e 106 120
e 106 121
e 106 122
e 106 126
e 106 127
e 106 128
e 107 117
e 107 118
e 107 119
e 107 120
e 107 121
e 107 122
e 107 126
e 107 127
e 107 128
e 108 109
e 108 110
e 108 117
e 108 118
e 108 119
e 108 120
e 108 121
e 108 122
e 108 123
e 108 124
e 108 125
e 109 110
e 109 117
e 109 118
e 109 119
e 109 120
e 109 121
e 109 122
e 109 123
e 109 124
e 109 125
e 110 117
e 110 118
e 110 119
e 110 120
e 110 121
e 110 122
e 110 123
e 110 124
e 110 125
e 111 112
e 111 113
e 111 120
e 111 121
e 111 122
e 111 123
e 111 124
e 111 125
e 111 126
e 111 127
e 111 128
e 112 113
e 112 120
e 112 121
e 112 122
e 112 123
e 112 124
e 112 125
e 112 126
e 112 127
e 112 128
e 113 120
e 113 121
e 113 122
e 113 123
e 113 124
e 113 125
e 113 126
e 113 127
e 113 128
e 114 115
e 114 116
e 114 117
e 114 118
e 114 119
e 114 123
e 114 124
e 114 125
e 114 126
e 114 127
e 114 128
e 115 116
e 115 117
e 115 118
e 115 119
e 115 123
e 115 124
e 115 125
e 115 126
e 115 127
e 115 128
e 116 117
e 116 118
e 116 119
e 116 123
e 116 124
e 116 125
e 116 126
e 116 127
e 116 128
e 117 118
e 117 119
e 117 129
e 117 130
e 117 131
e 117 132
e 117 133
e 117 134
e 117 138
e 117 139
e 117 140
e 118 119
e 118 129
e 118 130
e 118 131
e 118 132
e 118 133
e 118 134
e 118 138
e 118 139
e 118 140
e 119 129
e 119 130
e 119 131
e 119 132
e 119 133
e 119 134
e 119 138
e 119 139
e 119 140
e 120 121
e 120 122
e 120 129
e 120 130
e 120 131
e 120 132
e 120 133
e 120 134
e 120 135
e 120 136
e 120 137
e 121 122
e 121 129
e 121 130
e 121 131
e 121 132
e 121 133
e 121 134
e 121 135
e 121 136
e 121 137
e 122 129
e 122 130
e 122 131
e 122 132
e 122 133
e 122 134
e 122 135
e 122 136
e 122 137
e 123 124
e 123 125
e 123 132
e 123 133
e 123 134
e 123 135
e 123 136
e 123 137
e 123 138
e 123 139
e 123 140
e 124 125
e 124 132
e 124 133
e 124 134
e 124 135
e 124 136
e 124 137
e 124 138
e 124 139
e 124 140
e 125 132
e 125 133
e 125 134
e 125 135
e 125 136
e 125 137
e 125 138
e 125 139
e 125 140
e 126 127
e 126 128
e 126 135
e 126 136
e 126 137
e 126 138
e 126 139
e 126 140
e 126 141
e 126 142
e 126 143
e 127 128
e 127 135
e 127 136
e 127 137
e 127 138
e 127 139
e 127 140
e 127 141
e 127 142
e 127 143
e 128 135
e 128 136
e 128 137
e 128 138
e 128 139
e 128 140
e 128 141
e 128 142
e 128 143
e 129 130
e 129 131
e 129 132
e 129 135
e 129 137
e 129 141
e 129 142
e 129 143
e 129 144
e 129 145
e 129 146
e 129 150
e 129 151
e 129 152
e 130 131
e 130 141
e 130 142
e 130 143
e 130 144
e 130 145
e 130 146
e 130 150
e 130 151
e 130 152
e 131 135
e 131 137
e 131 140
e 131 141
e 131 142
e 131 143
e 131 144
e 131 145
e 131 146
e 131 150
e 131 151
e 131 152
e 132 133
e 132 134
e 132 138
e 132 140
e 132 141
e 132 142
e 132 143
e 132 144
e 132 145
e 132 146
e 132 147
e 132 148
e 132 149
e 133 134
e 133 141
e 133 142
e 133 143
e 133 144
e 133 145
e 133 146
e 133 147
e 133 148
e 133 149
e 134 137
e 134 138
e 134 140
e 134 141
e 134 142
e 134 143
e 134 144
e 134 145
e 134 146
e 134 147
e 134 148
e 134 149
e 135 136
e 135 137
e 135 138
e 135 144
e 135 145
e 135 146
e 135 147
e 135 148
e 135 149
e 135 150
e 135 151
e 135 152
e 136 137
e 136 144
e 136 145
e 136 146
e 136 147
e 136 148
e 136 149
e 136 150
e 136 151
e 136 152
e 137 144
e 137 145
e 137 146
e 137 147
e 137 148
e 137 149
e 137 150
e 137 151
e 137 152
e 138 139
e 138 140
e 138 141
e 138 142
e 138 143
e 138 147
e 138 148
e 138 149
e 138 150
e 138 151
e 138 152
e 139 140
e 139 141
e 139 142
e 139 143
e 139 147
e 139 148
e 139 149
e 139 150
e 139 151
e 139 152
e 140 141
e 140 142
e 140 143
e 140 147
e 140 148
e 140 149
e 140 150
e 140 151
e 140 152
e 141 142
e 141 143
e 141 144
e 142 143
e 143 152
e 144 145
e 144 146
e 145 146
e 146 149
e 147 148
e 147 149
e 147 150
e 148 149
e 150 151
e 150 152
e 151 152
e 0 1
